p wcnf 147 294 295 
1 93 140 0 
1 78 101 0 
1 37 -66 0 
1 -145 94 0 
1 -89 99 0 
1 25 -40 0 
1 -114 79 0 
1 37 58 0 
1 -30 34 0 
1 88 52 0 
1 -51 53 0 
1 -81 76 0 
1 -15 -23 0 
1 -114 -126 0 
1 108 -28 0 
1 -13 -86 0 
1 -10 27 0 
1 56 -65 0 
1 -39 -82 0 
1 127 -120 0 
1 45 -126 0 
1 77 110 0 
1 123 82 0 
1 32 -22 0 
1 43 55 0 
1 -137 39 0 
1 27 53 0 
1 28 80 0 
1 80 -57 0 
1 -96 21 0 
1 139 86 0 
1 -81 -135 0 
1 -70 -24 0 
1 11 86 0 
1 21 86 0 
1 -49 121 0 
1 -16 39 0 
1 -134 -144 0 
1 -27 88 0 
1 133 96 0 
1 4 124 0 
1 -121 -28 0 
1 -55 15 0 
1 46 -107 0 
1 -62 -5 0 
1 -30 58 0 
1 -113 -26 0 
1 89 11 0 
1 -38 -9 0 
1 -85 97 0 
1 -126 41 0 
1 -62 119 0 
1 -117 -15 0 
1 123 105 0 
1 -142 -55 0 
1 -22 105 0 
1 -32 103 0 
1 105 -122 0 
1 113 87 0 
1 76 -3 0 
1 53 -29 0 
1 -120 94 0 
1 48 -8 0 
1 -37 48 0 
1 110 117 0 
1 -134 41 0 
1 -126 127 0 
1 101 -39 0 
1 -45 91 0 
1 -122 142 0 
1 -53 -96 0 
1 -115 -51 0 
1 61 -9 0 
1 -80 -147 0 
1 -7 -86 0 
1 -8 -29 0 
1 -109 15 0 
1 -51 -7 0 
1 144 -129 0 
1 113 130 0 
1 -109 -45 0 
1 -70 -74 0 
1 29 64 0 
1 33 -114 0 
1 29 24 0 
1 -100 -60 0 
1 -62 49 0 
1 -4 94 0 
1 95 26 0 
1 56 105 0 
1 86 -103 0 
1 -105 144 0 
1 -49 68 0 
1 123 -125 0 
1 -84 101 0 
1 57 -24 0 
1 -127 137 0 
1 21 53 0 
1 -144 99 0 
1 13 94 0 
1 136 -8 0 
1 80 100 0 
1 26 -52 0 
1 -96 138 0 
1 -55 -25 0 
1 -16 121 0 
1 107 16 0 
1 -18 -135 0 
1 -66 12 0 
1 -99 -130 0 
1 -18 53 0 
1 69 -111 0 
1 -8 141 0 
1 -79 -86 0 
1 -114 21 0 
1 -23 27 0 
1 -33 67 0 
1 110 -111 0 
1 -85 -143 0 
1 -33 -64 0 
1 131 84 0 
1 -70 49 0 
1 -131 -33 0 
1 47 -26 0 
1 -145 87 0 
1 -33 53 0 
1 91 53 0 
1 -131 -2 0 
1 22 49 0 
1 -52 3 0 
1 72 111 0 
1 -31 -14 0 
1 -125 -120 0 
1 35 40 0 
1 -51 115 0 
1 -55 70 0 
1 -48 65 0 
1 77 -136 0 
1 15 59 0 
1 -69 25 0 
1 -143 28 0 
1 -130 -61 0 
1 126 -51 0 
1 -74 -137 0 
1 -79 -106 0 
1 -118 -109 0 
1 -19 -75 0 
1 142 -12 0 
1 135 -69 0 
1 -33 -16 0 
1 42 -85 0 
1 5 91 0 
1 -122 25 0 
1 -73 -122 0 
1 -123 -68 0 
1 115 -99 0 
1 -45 88 0 
1 -1 -35 0 
1 -119 -135 0 
1 33 44 0 
1 25 -118 0 
1 97 101 0 
1 115 -75 0 
1 34 147 0 
1 -116 -131 0 
1 110 -49 0 
1 -112 120 0 
1 -57 -43 0 
1 -15 -99 0 
1 146 -106 0 
1 28 63 0 
1 -57 -129 0 
1 132 -49 0 
1 65 -123 0 
1 37 96 0 
1 5 128 0 
1 -117 87 0 
1 -65 135 0 
1 -123 -112 0 
1 106 66 0 
1 135 -80 0 
1 -128 -79 0 
1 -7 14 0 
1 -75 -110 0 
1 77 22 0 
1 143 -66 0 
1 99 -1 0 
1 -147 -57 0 
1 66 -136 0 
1 -37 12 0 
1 147 63 0 
1 78 -43 0 
1 -18 -24 0 
1 -94 -141 0 
1 116 -67 0 
1 -110 -118 0 
1 -64 87 0 
1 -11 89 0 
1 -29 15 0 
1 9 131 0 
1 124 105 0 
1 -120 -99 0 
1 -79 -124 0 
1 -58 -126 0 
1 -27 -119 0 
1 -6 -37 0 
1 84 75 0 
1 -108 -133 0 
1 -81 102 0 
1 110 -145 0 
1 4 10 0 
1 -62 -21 0 
1 -135 -54 0 
1 61 8 0 
1 123 141 0 
1 -79 69 0 
1 93 132 0 
1 -18 -142 0 
1 38 120 0 
1 -101 65 0 
1 61 -146 0 
1 -3 79 0 
1 9 142 0 
1 -112 133 0 
1 98 -131 0 
1 -82 61 0 
1 -22 -111 0 
1 1 23 0 
1 104 -46 0 
1 -25 68 0 
1 -65 99 0 
1 -63 -132 0 
1 52 59 0 
1 104 -134 0 
1 3 -126 0 
1 -99 140 0 
1 -78 66 0 
1 -71 -84 0 
1 42 17 0 
1 -65 -10 0 
1 -101 125 0 
1 102 -65 0 
1 122 67 0 
1 -74 -6 0 
1 134 11 0 
1 135 -55 0 
1 78 112 0 
1 119 -121 0 
1 94 -65 0 
1 -19 43 0 
1 -107 -69 0 
1 -145 -108 0 
1 58 -74 0 
1 -31 -125 0 
1 110 56 0 
1 90 -105 0 
1 -105 56 0 
1 97 128 0 
1 -92 63 0 
1 -128 76 0 
1 70 56 0 
1 -113 -116 0 
1 105 25 0 
1 128 63 0 
1 13 114 0 
1 -30 -17 0 
1 -40 -70 0 
1 132 -93 0 
1 -86 144 0 
1 116 44 0 
1 -108 -122 0 
1 -142 -81 0 
1 123 -106 0 
1 -38 36 0 
1 50 128 0 
1 -115 55 0 
1 -42 -126 0 
1 87 -66 0 
1 52 96 0 
1 96 95 0 
1 -30 12 0 
1 17 83 0 
1 83 116 0 
1 -40 114 0 
1 -129 136 0 
1 -9 136 0 
1 66 138 0 
1 -27 -36 0 
1 -18 -111 0 
1 -134 104 0 
1 -126 83 0 
1 -33 -16 0 
1 -114 54 0 
1 -114 -108 0 
